\ LP format - for model browsing. Use MPS format to capture full model detail.
Minimize
  6.42 x0_2 + 16.56 x0_4 + 30.46 x0_15 + 23.16 x0_24 + 9.21 x0_32
   + 18.92 x1_2 + 11.66 x1_4 + 2.01 x1_15 + 8.13 x1_24 + 15.01 x1_32
   + 9.79 x2_4 + 20.5 x2_15 + 20.74 x2_24 + 3.52 x2_32 + 20.45 x3_2
   + 13.19 x3_4 + 3.04 x3_15 + 7.42 x3_24 + 16.54 x3_32 + 10.01 x4_2
   + 13 x4_15 + 8.73 x4_24 + 4.3 x4_32 + 3.4 x5_2 + 12.29 x5_4 + 23 x5_15
   + 23.24 x5_24 + 8.42 x5_32 + 14.72 x6_2 + 5.21 x6_4 + 17.71 x6_15
   + 11.8 x6_24 + 9.03 x6_32 + 5.18 x7_2 + 12.98 x7_4 + 25.48 x7_15
   + 19.58 x7_24 + 7.06 x7_32 + 1.02 x8_2 + 9.52 x8_4 + 20.23 x8_15
   + 20.47 x8_24 + 3.25 x8_32 + 3.83 x9_2 + 6.09 x9_4 + 18.24 x9_15
   + 14.94 x9_24 + 3.56 x9_32 + 18.03 x10_2 + 10.77 x10_4 + 2.71 x10_15
   + 11.58 x10_24 + 14.12 x10_32 + 20.36 x11_2 + 13.1 x11_4 + 4.35 x11_15
   + 7.26 x11_24 + 16.45 x11_32 + 17.44 x12_2 + 10.18 x12_4 + 5.1 x12_15
   + 5.22 x12_24 + 13.53 x12_32 + 1.61 x13_2 + 10.11 x13_4 + 20.82 x13_15
   + 21.06 x13_24 + 3.84 x13_32 + 15.16 x14_2 + 5.59 x14_4 + 17.23 x14_15
   + 6.74 x14_24 + 11.25 x14_32 + 20.57 x15_2 + 13.31 x15_4 + 12.21 x15_24
   + 16.66 x15_32 + 6.92 x16_2 + 1.94 x16_4 + 14.09 x16_15 + 10.79 x16_24
   + 3.44 x16_32 + 19.36 x17_2 + 12.1 x17_4 + 6.48 x17_15 + 4.63 x17_24
   + 15.32 x17_32 + 4.57 x18_2 + 11.74 x18_4 + 24.24 x18_15 + 18.34 x18_24
   + 6.54 x18_32 + 16.18 x19_2 + 8.92 x19_4 + 4.95 x19_15 + 8.48 x19_24
   + 12.27 x19_32 + 3.74 x20_2 + 5.63 x20_4 + 16.34 x20_15 + 16.58 x20_24
   + 0.96 x20_32 + 20.92 x21_2 + 6.64 x21_4 + 21.27 x21_15 + 13.5 x21_24
   + 9.47 x21_32 + 6.77 x22_2 + 3.49 x22_4 + 15.64 x22_15 + 11.13 x22_24
   + 4.96 x22_32 + 4.16 x23_2 + 7.17 x23_4 + 17.88 x23_15 + 18.12 x23_24
   + 2.32 x23_32 + 20.75 x24_2 + 8.48 x24_4 + 12.58 x24_15 + 16.84 x24_32
   + 15.74 x25_2 + 8.48 x25_4 + 7.15 x25_15 + 6.1 x25_24 + 11.83 x25_32
   + 18.17 x26_2 + 7.02 x26_4 + 7.8 x26_15 + 3.76 x26_24 + 14.26 x26_32
   + 22.44 x27_2 + 7.75 x27_4 + 14.31 x27_15 + 2.48 x27_24 + 18.53 x27_32
   + 11.54 x28_2 + 1.97 x28_4 + 13.61 x28_15 + 7.12 x28_24 + 7.63 x28_32
   + 2.88 x29_2 + 13.05 x29_4 + 23.76 x29_15 + 21.12 x29_24 + 5.67 x29_32
   + 13.8 x30_2 + 4.77 x30_4 + 8.95 x30_15 + 3.76 x30_24 + 9.89 x30_32
   + 12.25 x31_2 + 2.74 x31_4 + 15.24 x31_15 + 9.33 x31_24 + 6.56 x31_32
   + 3.57 x32_2 + 5.86 x32_4 + 16.57 x32_15 + 16.81 x32_24 + 19.3 x33_2
   + 8.09 x33_4 + 19.65 x33_15 + 11.88 x33_24 + 15.39 x33_32 + 14.96 x34_2
   + 5.39 x34_4 + 17.03 x34_15 + 8.42 x34_24 + 11.05 x34_32 + 24.64 x35_2
   + 17.38 x35_4 + 3.71 x35_15 + 14.44 x35_24 + 20.73 x35_32
Subject To
 Contrainte0: x0_2 + x0_4 + x0_15 + x0_24 + x0_32 = 1
 Contrainte1: x1_2 + x1_4 + x1_15 + x1_24 + x1_32 = 1
 Contrainte2: x2_2 + x2_4 + x2_15 + x2_24 + x2_32 = 1
 Contrainte3: x3_2 + x3_4 + x3_15 + x3_24 + x3_32 = 1
 Contrainte4: x4_2 + x4_4 + x4_15 + x4_24 + x4_32 = 1
 Contrainte5: x5_2 + x5_4 + x5_15 + x5_24 + x5_32 = 1
 Contrainte6: x6_2 + x6_4 + x6_15 + x6_24 + x6_32 = 1
 Contrainte7: x7_2 + x7_4 + x7_15 + x7_24 + x7_32 = 1
 Contrainte8: x8_2 + x8_4 + x8_15 + x8_24 + x8_32 = 1
 Contrainte9: x9_2 + x9_4 + x9_15 + x9_24 + x9_32 = 1
 Contrainte10: x10_2 + x10_4 + x10_15 + x10_24 + x10_32 = 1
 Contrainte11: x11_2 + x11_4 + x11_15 + x11_24 + x11_32 = 1
 Contrainte12: x12_2 + x12_4 + x12_15 + x12_24 + x12_32 = 1
 Contrainte13: x13_2 + x13_4 + x13_15 + x13_24 + x13_32 = 1
 Contrainte14: x14_2 + x14_4 + x14_15 + x14_24 + x14_32 = 1
 Contrainte15: x15_2 + x15_4 + x15_15 + x15_24 + x15_32 = 1
 Contrainte16: x16_2 + x16_4 + x16_15 + x16_24 + x16_32 = 1
 Contrainte17: x17_2 + x17_4 + x17_15 + x17_24 + x17_32 = 1
 Contrainte18: x18_2 + x18_4 + x18_15 + x18_24 + x18_32 = 1
 Contrainte19: x19_2 + x19_4 + x19_15 + x19_24 + x19_32 = 1
 Contrainte20: x20_2 + x20_4 + x20_15 + x20_24 + x20_32 = 1
 Contrainte21: x21_2 + x21_4 + x21_15 + x21_24 + x21_32 = 1
 Contrainte22: x22_2 + x22_4 + x22_15 + x22_24 + x22_32 = 1
 Contrainte23: x23_2 + x23_4 + x23_15 + x23_24 + x23_32 = 1
 Contrainte24: x24_2 + x24_4 + x24_15 + x24_24 + x24_32 = 1
 Contrainte25: x25_2 + x25_4 + x25_15 + x25_24 + x25_32 = 1
 Contrainte26: x26_2 + x26_4 + x26_15 + x26_24 + x26_32 = 1
 Contrainte27: x27_2 + x27_4 + x27_15 + x27_24 + x27_32 = 1
 Contrainte28: x28_2 + x28_4 + x28_15 + x28_24 + x28_32 = 1
 Contrainte29: x29_2 + x29_4 + x29_15 + x29_24 + x29_32 = 1
 Contrainte30: x30_2 + x30_4 + x30_15 + x30_24 + x30_32 = 1
 Contrainte31: x31_2 + x31_4 + x31_15 + x31_24 + x31_32 = 1
 Contrainte32: x32_2 + x32_4 + x32_15 + x32_24 + x32_32 = 1
 Contrainte33: x33_2 + x33_4 + x33_15 + x33_24 + x33_32 = 1
 Contrainte34: x34_2 + x34_4 + x34_15 + x34_24 + x34_32 = 1
 Contrainte35: x35_2 + x35_4 + x35_15 + x35_24 + x35_32 = 1
 Contrainte36: 61793 x0_2 + 82327 x1_2 + 38080 x2_2 + 29284 x3_2
   + 114205 x4_2 + 19985 x5_2 + 18668 x6_2 + 32111 x7_2 + 32619 x8_2
   + 52546 x9_2 + 58916 x10_2 + 85398 x11_2 + 87469 x12_2 + 23351 x13_2
   + 18169 x14_2 + 41364 x15_2 + 64355 x16_2 + 27628 x17_2 + 27727 x18_2
   + 64253 x19_2 + 30982 x20_2 + 1647 x21_2 + 45058 x22_2 + 48597 x23_2
   + 89185 x24_2 + 61754 x25_2 + 44753 x26_2 + 79426 x27_2 + 29873 x28_2
   + 19638 x29_2 + 22978 x30_2 + 46723 x31_2 + 27002 x32_2 + 8615 x33_2
   + 10828 x34_2 + 25183 x35_2 <= 345947.8
 Contrainte37: 61793 x0_4 + 82327 x1_4 + 38080 x2_4 + 29284 x3_4
   + 114205 x4_4 + 19985 x5_4 + 18668 x6_4 + 32111 x7_4 + 32619 x8_4
   + 52546 x9_4 + 58916 x10_4 + 85398 x11_4 + 87469 x12_4 + 23351 x13_4
   + 18169 x14_4 + 41364 x15_4 + 64355 x16_4 + 27628 x17_4 + 27727 x18_4
   + 64253 x19_4 + 30982 x20_4 + 1647 x21_4 + 45058 x22_4 + 48597 x23_4
   + 89185 x24_4 + 61754 x25_4 + 44753 x26_4 + 79426 x27_4 + 29873 x28_4
   + 19638 x29_4 + 22978 x30_4 + 46723 x31_4 + 27002 x32_4 + 8615 x33_4
   + 10828 x34_4 + 25183 x35_4 <= 345947.8
 Contrainte38: 61793 x0_15 + 82327 x1_15 + 38080 x2_15 + 29284 x3_15
   + 114205 x4_15 + 19985 x5_15 + 18668 x6_15 + 32111 x7_15 + 32619 x8_15
   + 52546 x9_15 + 58916 x10_15 + 85398 x11_15 + 87469 x12_15
   + 23351 x13_15 + 18169 x14_15 + 41364 x15_15 + 64355 x16_15
   + 27628 x17_15 + 27727 x18_15 + 64253 x19_15 + 30982 x20_15
   + 1647 x21_15 + 45058 x22_15 + 48597 x23_15 + 89185 x24_15
   + 61754 x25_15 + 44753 x26_15 + 79426 x27_15 + 29873 x28_15
   + 19638 x29_15 + 22978 x30_15 + 46723 x31_15 + 27002 x32_15
   + 8615 x33_15 + 10828 x34_15 + 25183 x35_15 <= 345947.8
 Contrainte39: 61793 x0_24 + 82327 x1_24 + 38080 x2_24 + 29284 x3_24
   + 114205 x4_24 + 19985 x5_24 + 18668 x6_24 + 32111 x7_24 + 32619 x8_24
   + 52546 x9_24 + 58916 x10_24 + 85398 x11_24 + 87469 x12_24
   + 23351 x13_24 + 18169 x14_24 + 41364 x15_24 + 64355 x16_24
   + 27628 x17_24 + 27727 x18_24 + 64253 x19_24 + 30982 x20_24
   + 1647 x21_24 + 45058 x22_24 + 48597 x23_24 + 89185 x24_24
   + 61754 x25_24 + 44753 x26_24 + 79426 x27_24 + 29873 x28_24
   + 19638 x29_24 + 22978 x30_24 + 46723 x31_24 + 27002 x32_24
   + 8615 x33_24 + 10828 x34_24 + 25183 x35_24 <= 345947.8
 Contrainte40: 61793 x0_32 + 82327 x1_32 + 38080 x2_32 + 29284 x3_32
   + 114205 x4_32 + 19985 x5_32 + 18668 x6_32 + 32111 x7_32 + 32619 x8_32
   + 52546 x9_32 + 58916 x10_32 + 85398 x11_32 + 87469 x12_32
   + 23351 x13_32 + 18169 x14_32 + 41364 x15_32 + 64355 x16_32
   + 27628 x17_32 + 27727 x18_32 + 64253 x19_32 + 30982 x20_32
   + 1647 x21_32 + 45058 x22_32 + 48597 x23_32 + 89185 x24_32
   + 61754 x25_32 + 44753 x26_32 + 79426 x27_32 + 29873 x28_32
   + 19638 x29_32 + 22978 x30_32 + 46723 x31_32 + 27002 x32_32
   + 8615 x33_32 + 10828 x34_32 + 25183 x35_32 <= 345947.8
Bounds
Binaries
 x0_2 x0_4 x0_15 x0_24 x0_32 x1_2 x1_4 x1_15 x1_24 x1_32 x2_2 x2_4 x2_15
 x2_24 x2_32 x3_2 x3_4 x3_15 x3_24 x3_32 x4_2 x4_4 x4_15 x4_24 x4_32 x5_2
 x5_4 x5_15 x5_24 x5_32 x6_2 x6_4 x6_15 x6_24 x6_32 x7_2 x7_4 x7_15 x7_24
 x7_32 x8_2 x8_4 x8_15 x8_24 x8_32 x9_2 x9_4 x9_15 x9_24 x9_32 x10_2 x10_4
 x10_15 x10_24 x10_32 x11_2 x11_4 x11_15 x11_24 x11_32 x12_2 x12_4 x12_15
 x12_24 x12_32 x13_2 x13_4 x13_15 x13_24 x13_32 x14_2 x14_4 x14_15 x14_24
 x14_32 x15_2 x15_4 x15_15 x15_24 x15_32 x16_2 x16_4 x16_15 x16_24 x16_32
 x17_2 x17_4 x17_15 x17_24 x17_32 x18_2 x18_4 x18_15 x18_24 x18_32 x19_2
 x19_4 x19_15 x19_24 x19_32 x20_2 x20_4 x20_15 x20_24 x20_32 x21_2 x21_4
 x21_15 x21_24 x21_32 x22_2 x22_4 x22_15 x22_24 x22_32 x23_2 x23_4 x23_15
 x23_24 x23_32 x24_2 x24_4 x24_15 x24_24 x24_32 x25_2 x25_4 x25_15 x25_24
 x25_32 x26_2 x26_4 x26_15 x26_24 x26_32 x27_2 x27_4 x27_15 x27_24 x27_32
 x28_2 x28_4 x28_15 x28_24 x28_32 x29_2 x29_4 x29_15 x29_24 x29_32 x30_2
 x30_4 x30_15 x30_24 x30_32 x31_2 x31_4 x31_15 x31_24 x31_32 x32_2 x32_4
 x32_15 x32_24 x32_32 x33_2 x33_4 x33_15 x33_24 x33_32 x34_2 x34_4 x34_15
 x34_24 x34_32 x35_2 x35_4 x35_15 x35_24 x35_32
End
